NAME : Unnamed.774.tour
COMMENT : Length = 774
COMMENT : Found by LKH [Keld Helsgaun] Wed Oct 22 13:41:31 2014
TYPE : TOUR
DIMENSION : 100
TOUR_SECTION
1
5
2
100
10
7
8
6
9
4
11
84
83
66
76
79
62
82
74
65
46
38
12
33
29
13
26
35
55
20
81
68
78
77
3
71
72
64
61
67
80
70
32
52
30
59
15
47
18
37
63
75
27
60
51
28
17
24
34
39
44
43
57
16
21
54
41
49
45
14
36
42
50
58
25
31
22
23
40
48
19
56
53
73
85
89
86
87
88
98
96
99
91
97
93
94
90
92
95
69
-1
EOF
